
  15    0


   0   9 2 3 4 5 6 7 8 13 14 
   1   1 9 
   4   1 12 
   1   1 11 
   6   1 10 
   5   1 10 
   8   1 9 
   5   1 9 
  10   1 15
   8   1 15
   8   1 15
   1   1 15
   1   1 15
   3   1 15
   0   0 
